
Gurobi 11.0.3 (linux64) logging started Fri Nov 22 12:21:33 2024

Set parameter LogFile to value "/home/yihong/Coding/OR_SUC/SUC_results_bigM100000_thread4/case24_ieee_rts_theta0.1_epsilon0.05_gurobi_seed630000_num_gen100_N_WDR100_load_scaling_factor1_exact_T28quadra_cost.txt"
Set parameter TimeLimit to value 3600
Gurobi Optimizer version 11.0.3 build v11.0.3rc0 (linux64 - "Ubuntu 20.04.6 LTS")

CPU model: AMD EPYC 7532 32-Core Processor, instruction set [SSE2|AVX|AVX2]
Thread count: 64 physical cores, 128 logical processors, using up to 4 threads

Optimize a model with 67335 rows, 34921 columns and 1546834 nonzeros
Model fingerprint: 0x89aa66b5
Model has 2800 quadratic constraints
Variable types: 32021 continuous, 2900 integer (2900 binary)
Coefficient statistics:
  Matrix range     [2e-04, 1e+05]
  QMatrix range    [2e-03, 8e-03]
  QLMatrix range   [4e-01, 6e+01]
  Objective range  [1e+00, 1e+00]
  Bounds range     [1e+00, 1e+00]
  RHS range        [1e+00, 1e+05]
Presolve removed 55007 rows and 14786 columns
Presolve time: 0.46s
Presolved: 12328 rows, 20135 columns, 69506 nonzeros
Presolved model has 2800 quadratic constraint(s)
Variable types: 17242 continuous, 2893 integer (2893 binary)

Root relaxation: objective 3.505764e+04, 9903 iterations, 0.31 seconds (0.46 work units)

    Nodes    |    Current Node    |     Objective Bounds      |     Work
 Expl Unexpl |  Obj  Depth IntInf | Incumbent    BestBd   Gap | It/Node Time

     0     0 35057.6351    0   13          - 35057.6351      -     -    0s
     0     0 342499.827    0  788          - 342499.827      -     -    1s
     0     0 413013.800    0  813          - 413013.800      -     -    1s
     0     0 691972.206    0  804          - 691972.206      -     -    2s
     0     0 692120.117    0  704          - 692120.117      -     -    2s
     0     0 692813.396    0  559          - 692813.396      -     -    2s
     0     0 692865.148    0  556          - 692865.148      -     -    2s
     0     0 693018.466    0  542          - 693018.466      -     -    2s
     0     0 693018.839    0  542          - 693018.839      -     -    3s
     0     2 693288.205    0  542          - 693288.205      -     -    3s
   161   173 693632.866   37  469          - 693346.560      -  60.7    5s
H  672   249                    693543.25228 693346.560  0.03%  29.3    6s
*  672   249             194    693543.25228 693346.560  0.03%  29.3    6s

Cutting planes:
  Implied bound: 452
  MIR: 204
  Flow cover: 219

Explored 699 nodes (50097 simplex iterations) in 7.37 seconds (9.69 work units)
Thread count was 4 (of 128 available processors)

Solution count 2: 693543 693543 

Optimal solution found (tolerance 1.00e-03)
Warning: max constraint violation (2.8123e-07) exceeds tolerance
Best objective 6.935432522799e+05, best bound 6.933465598997e+05, gap 0.0284%
